WARNING: for repeatability, setting FPU to use double precision
============================[ Problem Statistics ]=============================
|                                                                             |
|  Number of variables:            50                                         |
|  Number of clauses:             218                                         |
|  Parse time:                   0.00 s                                       |
|                                                                             |
============================[ Search Statistics ]==============================
| Conflicts |          ORIGINAL         |          LEARNT          | Progress |
|           |    Vars  Clauses Literals |    Limit  Clauses Lit/Cl |          |
===============================================================================
===============================================================================
restarts              : 1
conflicts             : 75             (49213 /sec)
decisions             : 88             (0.00 % random) (57743 /sec)
propagations          : 1220           (800525 /sec)
conflict literals     : 283            (23.31 % deleted)
Memory used           : 20.00 MB
CPU time              : 0.001524 s

UNSATISFIABLE
